216
2921
161
0 1
0 2
0 4
0 9
0 30
0 93
0 105
0 114
0 180
1 2
1 4
1 9
1 16
1 17
1 18
1 21
1 25
1 27
1 28
1 30
1 31
1 33
1 39
1 87
1 93
1 105
1 114
1 180
2 4
2 9
2 16
2 17
2 18
2 21
2 25
2 27
2 28
2 30
2 31
2 33
2 39
2 48
2 50
2 51
2 53
2 55
2 57
2 60
2 87
2 93
2 105
2 114
2 152
2 180
2 185
2 203
3 4
3 11
3 13
3 19
3 24
3 26
3 32
3 34
3 35
3 37
3 38
3 40
3 41
3 43
3 47
3 65
3 94
3 108
4 9
4 11
4 13
4 15
4 19
4 24
4 26
4 30
4 32
4 34
4 35
4 37
4 38
4 40
4 41
4 43
4 46
4 93
4 105
4 108
4 114
4 147
4 180
4 201
5 6
5 7
5 8
5 10
5 12
5 20
5 22
5 23
5 36
5 42
5 52
5 106
5 107
5 109
5 110
5 123
5 136
5 153
5 169
5 171
5 188
6 7
6 8
6 10
6 12
6 20
6 22
6 23
6 36
6 42
6 52
7 8
7 10
7 12
7 20
7 22
7 23
7 36
7 42
7 52
7 73
7 98
7 99
7 103
7 111
7 112
7 113
7 115
7 116
8 10
8 12
8 20
8 22
8 23
8 36
8 42
8 52
8 56
8 73
8 98
8 99
8 103
8 111
8 112
8 113
8 115
8 116
8 118
8 120
8 122
8 125
8 157
8 165
8 174
8 182
8 184
8 187
8 193
8 210
9 16
9 17
9 18
9 21
9 25
9 27
9 28
9 30
9 31
9 33
9 39
9 49
9 54
9 56
9 58
9 59
9 61
9 62
9 69
9 71
9 87
9 93
9 101
9 105
9 114
9 180
10 12
10 20
10 22
10 23
10 36
10 42
10 52
10 73
10 88
10 98
10 99
10 103
10 111
10 112
10 113
10 115
10 116
10 119
10 121
10 127
10 129
10 135
10 141
10 212
11 13
11 19
11 24
11 26
11 27
11 32
11 34
11 35
11 37
11 38
11 40
11 41
11 43
11 47
11 60
11 61
11 65
11 72
11 75
11 81
11 89
11 90
11 94
11 102
11 108
11 140
11 143
11 144
11 154
11 159
11 176
11 207
11 208
11 210
11 212
11 215
12 20
12 22
12 23
12 36
12 42
12 52
12 73
12 74
12 98
12 99
12 103
12 111
12 112
12 113
12 115
12 116
12 124
12 128
12 130
12 142
13 19
13 24
13 26
13 32
13 34
13 35
13 37
13 38
13 40
13 41
13 43
13 47
13 60
13 65
13 72
13 75
13 81
13 89
13 90
13 94
13 102
13 108
13 140
13 143
13 144
14 20
14 22
14 23
14 44
14 47
14 52
14 77
14 145
14 162
15 19
15 24
15 26
15 46
15 147
15 201
16 17
16 18
16 21
16 25
16 27
16 28
16 31
16 33
16 39
16 87
16 114
17 18
17 21
17 25
17 27
17 28
17 31
17 33
17 39
17 48
17 50
17 51
17 53
17 55
17 57
17 60
17 87
17 114
17 152
17 185
17 203
18 21
18 25
18 27
18 28
18 31
18 33
18 39
18 48
18 50
18 51
18 53
18 55
18 57
18 60
18 67
18 68
18 70
18 72
18 74
18 75
18 87
18 100
18 102
18 109
18 114
18 152
18 185
18 203
19 24
19 26
19 32
19 34
19 35
19 37
19 38
19 40
19 41
19 43
19 46
19 108
19 147
19 201
20 22
20 23
20 36
20 42
20 44
20 47
20 52
20 77
20 106
20 107
20 109
20 110
20 123
20 136
20 145
20 153
20 162
20 169
20 171
20 188
21 25
21 27
21 28
21 31
21 33
21 39
21 48
21 50
21 51
21 53
21 55
21 57
21 60
21 63
21 65
21 73
21 76
21 82
21 83
21 87
21 114
21 138
21 152
21 185
21 203
21 206
22 23
22 36
22 42
22 44
22 47
22 52
22 77
22 145
22 162
23 36
23 42
23 44
23 47
23 52
23 73
23 77
23 98
23 99
23 103
23 111
23 112
23 113
23 115
23 116
23 145
23 162
24 26
24 32
24 34
24 35
24 37
24 38
24 40
24 41
24 43
24 46
24 55
24 57
24 68
24 70
24 74
24 84
24 85
24 86
24 88
24 100
24 108
24 147
24 156
24 192
24 201
24 211
25 27
25 28
25 31
25 33
25 39
25 49
25 54
25 56
25 58
25 59
25 61
25 62
25 69
25 71
25 87
25 101
25 114
26 27
26 32
26 34
26 35
26 37
26 38
26 40
26 41
26 43
26 46
26 60
26 61
26 72
26 75
26 81
26 89
26 90
26 102
26 108
26 140
26 143
26 144
26 147
26 154
26 159
26 176
26 201
26 207
26 208
26 210
26 212
26 215
27 28
27 31
27 33
27 39
27 41
27 49
27 54
27 56
27 58
27 59
27 60
27 61
27 62
27 69
27 71
27 87
27 90
27 101
27 114
27 143
27 148
27 150
27 151
27 154
27 156
27 159
27 160
27 176
27 207
27 208
27 210
27 212
27 215
28 31
28 33
28 39
28 49
28 54
28 56
28 58
28 59
28 61
28 62
28 69
28 71
28 87
28 101
28 114
28 148
28 150
28 151
28 154
28 156
28 159
28 160
29 30
29 36
29 42
29 131
29 198
30 36
30 42
30 93
30 105
30 114
30 131
30 180
30 198
31 33
31 39
31 77
31 78
31 87
31 114
31 118
31 132
31 163
31 199
32 34
32 35
32 37
32 38
32 40
32 41
32 43
32 49
32 76
32 80
32 82
32 83
32 108
32 122
32 134
32 137
32 138
32 150
32 170
32 184
32 204
32 206
33 39
33 48
33 50
33 51
33 53
33 55
33 57
33 60
33 67
33 68
33 70
33 72
33 74
33 75
33 77
33 78
33 87
33 100
33 102
33 109
33 114
33 118
33 132
33 152
33 163
33 185
33 199
33 203
34 35
34 37
34 38
34 40
34 41
34 43
34 108
35 37
35 38
35 40
35 41
35 43
35 55
35 57
35 68
35 70
35 74
35 84
35 85
35 86
35 88
35 100
35 108
35 117
35 123
35 126
35 135
35 136
35 139
35 141
35 142
35 153
35 156
35 169
35 171
35 172
35 178
35 180
35 188
35 189
35 192
35 207
35 211
36 42
36 52
36 131
36 198
37 38
37 40
37 41
37 43
37 55
37 57
37 68
37 70
37 74
37 84
37 85
37 86
37 88
37 100
37 108
37 135
37 136
37 139
37 141
37 142
37 156
37 192
37 211
38 40
38 41
38 43
38 55
38 57
38 68
38 70
38 74
38 84
38 85
38 86
38 88
38 100
38 108
38 156
38 192
38 211
39 49
39 54
39 56
39 58
39 59
39 61
39 62
39 69
39 71
39 77
39 78
39 87
39 101
39 114
39 118
39 132
39 163
39 199
40 41
40 43
40 60
40 72
40 75
40 81
40 88
40 89
40 90
40 102
40 108
40 113
40 119
40 121
40 127
40 135
40 140
40 143
40 144
40 162
40 164
40 168
40 175
40 190
40 195
40 203
40 209
40 212
40 213
40 214
41 43
41 60
41 61
41 72
41 75
41 81
41 89
41 90
41 102
41 108
41 140
41 143
41 144
41 154
41 159
41 176
41 207
41 208
41 210
41 212
41 215
42 52
42 73
42 74
42 98
42 99
42 103
42 111
42 112
42 113
42 115
42 116
42 124
42 128
42 130
42 131
42 142
42 198
43 60
43 72
43 75
43 81
43 89
43 90
43 102
43 108
43 140
43 143
43 144
44 45
44 46
44 47
44 52
44 64
44 77
44 92
44 106
44 119
44 145
44 146
44 147
44 162
44 164
44 179
44 200
44 201
45 46
45 47
45 52
45 64
45 92
45 106
45 119
45 145
45 146
45 147
45 162
45 164
45 179
45 200
45 201
46 47
46 52
46 64
46 92
46 106
46 119
46 145
46 146
46 147
46 162
46 164
46 179
46 200
46 201
47 52
47 64
47 65
47 77
47 92
47 94
47 106
47 108
47 119
47 145
47 146
47 147
47 162
47 164
47 179
47 200
47 201
48 50
48 51
48 53
48 55
48 57
48 60
48 152
48 185
48 203
49 54
49 56
49 58
49 59
49 61
49 62
49 69
49 71
49 76
49 80
49 82
49 83
49 87
49 101
49 114
49 122
49 124
49 134
49 137
49 138
49 148
49 150
49 151
49 154
49 156
49 159
49 160
49 163
49 166
49 170
49 181
49 184
49 186
49 192
49 198
49 199
49 202
49 204
49 205
49 206
49 211
50 51
50 53
50 55
50 57
50 60
50 67
50 68
50 70
50 72
50 74
50 75
50 100
50 102
50 109
50 152
50 185
50 203
51 53
51 55
51 57
51 60
51 63
51 65
51 73
51 76
51 82
51 83
51 138
51 152
51 185
51 203
51 206
52 64
52 77
52 92
52 106
52 119
52 145
52 146
52 147
52 162
52 164
52 179
52 200
52 201
53 55
53 57
53 60
53 63
53 65
53 73
53 76
53 82
53 83
53 91
53 93
53 94
53 97
53 98
53 99
53 103
53 138
53 152
53 185
53 203
53 206
54 56
54 58
54 59
54 61
54 62
54 69
54 71
54 87
54 101
54 114
54 153
54 155
54 157
54 158
54 161
54 165
54 169
54 171
54 172
54 173
54 174
54 190
54 196
54 209
55 57
55 60
55 67
55 68
55 70
55 72
55 74
55 75
55 84
55 85
55 86
55 88
55 100
55 102
55 109
55 135
55 136
55 139
55 141
55 142
55 152
55 156
55 185
55 192
55 203
55 211
56 58
56 59
56 61
56 62
56 69
56 71
56 87
56 99
56 101
56 112
56 114
56 118
56 120
56 122
56 125
56 153
56 155
56 157
56 158
56 161
56 165
56 169
56 171
56 172
56 173
56 174
56 182
56 184
56 187
56 190
56 193
56 196
56 209
56 210
57 60
57 67
57 68
57 70
57 72
57 74
57 75
57 84
57 85
57 86
57 88
57 100
57 102
57 109
57 152
57 156
57 185
57 192
57 203
57 211
58 59
58 61
58 62
58 69
58 71
58 87
58 101
58 114
59 61
59 62
59 69
59 71
59 87
59 101
59 114
59 153
59 155
59 157
59 158
59 161
59 196
60 61
60 67
60 68
60 70
60 72
60 74
60 75
60 81
60 89
60 90
60 100
60 102
60 109
60 140
60 143
60 144
60 152
60 154
60 159
60 176
60 185
60 203
60 207
60 208
60 210
60 212
60 215
61 62
61 69
61 71
61 87
61 90
61 101
61 114
61 143
61 148
61 150
61 151
61 154
61 156
61 159
61 160
61 176
61 207
61 208
61 210
61 212
61 215
62 69
62 71
62 87
62 101
62 114
62 153
62 155
62 157
62 158
62 161
62 163
62 166
62 167
62 170
62 176
62 177
62 196
63 65
63 73
63 76
63 82
63 83
63 91
63 93
63 94
63 97
63 98
63 99
63 103
63 104
63 105
63 108
63 114
63 117
63 138
63 152
63 178
63 180
63 206
64 66
64 69
64 71
64 80
64 92
64 95
64 101
64 106
64 119
64 134
64 145
64 146
64 147
64 162
64 164
64 179
64 200
64 201
65 73
65 76
65 82
65 83
65 91
65 93
65 94
65 97
65 98
65 99
65 103
65 104
65 105
65 108
65 114
65 117
65 138
65 152
65 178
65 180
65 206
66 69
66 71
66 80
66 92
66 95
66 101
66 106
66 134
67 68
67 70
67 72
67 74
67 75
67 100
67 102
67 109
68 70
68 72
68 74
68 75
68 84
68 85
68 86
68 88
68 100
68 102
68 109
68 135
68 136
68 139
68 141
68 142
68 156
68 192
68 211
69 71
69 80
69 87
69 92
69 95
69 101
69 106
69 114
69 134
69 153
69 155
69 157
69 158
69 161
69 165
69 169
69 171
69 172
69 173
69 174
69 190
69 196
69 209
70 72
70 74
70 75
70 84
70 85
70 86
70 88
70 100
70 102
70 109
70 156
70 192
70 211
71 80
71 87
71 92
71 95
71 101
71 106
71 114
71 134
72 74
72 75
72 81
72 89
72 90
72 100
72 102
72 109
72 140
72 143
72 144
72 190
72 195
72 203
72 209
72 213
72 214
73 74
73 76
73 82
73 83
73 91
73 93
73 94
73 97
73 98
73 99
73 103
73 111
73 112
73 113
73 115
73 116
73 124
73 128
73 130
73 138
73 142
73 152
73 206
74 75
74 84
74 85
74 86
74 88
74 100
74 102
74 103
74 109
74 116
74 124
74 128
74 130
74 135
74 136
74 139
74 141
74 142
74 156
74 192
74 211
75 81
75 89
75 90
75 100
75 102
75 109
75 140
75 143
75 144
76 80
76 82
76 83
76 91
76 93
76 94
76 97
76 98
76 99
76 103
76 104
76 105
76 108
76 114
76 117
76 122
76 134
76 137
76 138
76 150
76 152
76 170
76 178
76 180
76 184
76 204
76 206
77 78
77 79
77 87
77 118
77 120
77 131
77 132
77 133
77 145
77 148
77 162
77 163
77 165
77 166
77 181
77 182
77 198
77 199
77 202
78 79
78 87
78 118
78 120
78 131
78 132
78 133
78 148
78 163
78 165
78 166
78 181
78 182
78 198
78 199
78 202
79 87
79 118
79 120
79 131
79 132
79 133
79 148
79 163
79 165
79 166
79 181
79 182
79 198
79 199
79 202
80 82
80 83
80 92
80 95
80 101
80 106
80 122
80 134
80 137
80 138
80 150
80 170
80 184
80 204
80 206
81 89
81 90
81 102
81 119
81 121
81 128
81 135
81 140
81 143
81 144
81 145
81 146
81 147
81 149
81 152
81 162
81 164
81 167
81 168
81 179
81 183
81 185
81 194
81 196
81 200
81 201
81 203
82 83
82 122
82 134
82 137
82 138
82 150
82 152
82 170
82 184
82 204
82 206
83 91
83 93
83 94
83 97
83 98
83 99
83 103
83 122
83 134
83 137
83 138
83 150
83 152
83 170
83 184
83 204
83 206
84 85
84 86
84 88
84 100
84 117
84 123
84 126
84 135
84 136
84 139
84 141
84 142
84 153
84 156
84 169
84 171
84 172
84 178
84 180
84 188
84 189
84 192
84 207
84 211
85 86
85 88
85 100
85 135
85 136
85 139
85 141
85 142
85 156
85 192
85 211
86 88
86 100
86 156
86 192
86 211
87 101
87 114
87 118
87 120
87 131
87 132
87 133
87 148
87 163
87 165
87 166
87 181
87 182
87 198
87 199
87 202
88 100
88 113
88 115
88 119
88 121
88 127
88 129
88 135
88 136
88 139
88 141
88 142
88 156
88 162
88 164
88 168
88 175
88 192
88 203
88 211
88 212
88 213
89 90
89 102
89 140
89 143
89 144
89 190
89 195
89 203
89 209
89 213
89 214
90 102
90 140
90 143
90 144
90 154
90 159
90 176
90 207
90 208
90 210
90 212
90 215
91 93
91 94
91 97
91 98
91 99
91 103
91 104
91 105
91 108
91 114
91 117
91 178
91 180
92 95
92 96
92 100
92 101
92 102
92 106
92 107
92 109
92 119
92 123
92 134
92 136
92 145
92 146
92 147
92 162
92 164
92 169
92 179
92 200
92 201
93 94
93 97
93 98
93 99
93 103
93 104
93 105
93 108
93 114
93 117
93 178
93 180
94 97
94 98
94 99
94 103
94 104
94 105
94 108
94 114
94 117
94 178
94 180
95 96
95 100
95 101
95 102
95 106
95 107
95 109
95 123
95 134
95 136
95 169
96 100
96 101
96 102
96 106
96 107
96 109
96 123
96 136
96 169
97 98
97 99
97 103
98 99
98 103
98 111
98 112
98 113
98 115
98 116
99 103
99 111
99 112
99 113
99 115
99 116
99 118
99 120
99 122
99 125
99 157
99 165
99 174
99 182
99 184
99 187
99 193
99 210
100 101
100 102
100 106
100 107
100 109
100 123
100 136
100 156
100 169
100 192
100 211
101 102
101 106
101 107
101 109
101 114
101 123
101 134
101 136
101 169
102 106
102 107
102 109
102 123
102 136
102 140
102 143
102 144
102 169
102 190
102 195
102 203
102 209
102 213
102 214
103 111
103 112
103 113
103 115
103 116
103 124
103 128
103 130
103 142
104 105
104 108
104 114
104 117
104 178
104 180
105 108
105 114
105 117
105 178
105 180
106 107
106 109
106 110
106 119
106 123
106 134
106 136
106 145
106 146
106 147
106 153
106 162
106 164
106 169
106 171
106 179
106 188
106 200
106 201
107 109
107 110
107 123
107 136
107 153
107 169
107 171
107 188
108 114
108 117
108 178
108 180
109 110
109 123
109 136
109 153
109 169
109 171
109 188
110 123
110 136
110 153
110 169
110 171
110 188
111 112
111 113
111 115
111 116
112 113
112 115
112 116
112 118
112 120
112 122
112 125
112 157
112 165
112 174
112 182
112 184
112 187
112 193
112 210
113 115
113 116
113 119
113 121
113 127
113 129
113 135
113 141
113 162
113 164
113 168
113 175
113 203
113 212
113 213
114 117
114 178
114 180
115 116
115 119
115 121
115 127
115 129
115 135
115 141
115 212
116 124
116 128
116 130
116 142
117 123
117 126
117 136
117 139
117 153
117 169
117 171
117 172
117 178
117 180
117 188
117 189
117 207
118 120
118 122
118 125
118 131
118 132
118 133
118 134
118 137
118 138
118 140
118 143
118 144
118 148
118 157
118 163
118 165
118 166
118 174
118 181
118 182
118 184
118 187
118 193
118 198
118 199
118 202
118 210
119 121
119 127
119 129
119 135
119 141
119 145
119 146
119 147
119 149
119 152
119 162
119 164
119 167
119 168
119 175
119 179
119 183
119 185
119 200
119 201
119 203
119 212
119 213
120 122
120 125
120 131
120 132
120 133
120 134
120 137
120 138
120 140
120 143
120 144
120 148
120 157
120 163
120 165
120 166
120 174
120 181
120 182
120 184
120 187
120 193
120 198
120 199
120 202
120 210
121 127
121 129
121 135
121 141
121 145
121 146
121 147
121 149
121 152
121 162
121 164
121 167
121 168
121 175
121 179
121 183
121 185
121 200
121 201
121 203
121 212
121 213
122 125
122 131
122 132
122 133
122 134
122 137
122 138
122 140
122 143
122 144
122 150
122 157
122 165
122 170
122 174
122 182
122 184
122 187
122 193
122 204
122 206
122 210
123 126
123 136
123 139
123 153
123 169
123 171
123 172
123 178
123 180
123 188
123 189
123 207
124 128
124 130
124 142
124 148
124 150
124 151
124 156
124 163
124 166
124 170
124 179
124 181
124 183
124 185
124 186
124 190
124 192
124 194
124 195
124 196
124 197
124 198
124 199
124 202
124 204
124 205
124 206
124 211
125 131
125 132
125 133
125 134
125 137
125 138
125 140
125 143
125 144
125 157
125 165
125 174
125 182
125 184
125 187
125 193
125 210
126 136
126 139
126 153
126 169
126 171
126 172
126 178
126 180
126 188
126 189
126 207
127 129
127 135
127 141
127 162
127 164
127 168
127 175
127 203
127 212
127 213
128 130
128 140
128 142
128 167
128 179
128 181
128 183
128 185
128 186
128 190
128 192
128 194
128 195
128 196
128 197
128 200
128 201
129 135
129 141
129 212
130 142
131 132
131 133
131 134
131 137
131 138
131 140
131 143
131 144
131 148
131 163
131 165
131 166
131 181
131 182
131 184
131 187
131 198
131 199
131 202
132 133
132 134
132 137
132 138
132 140
132 143
132 144
132 148
132 163
132 165
132 166
132 181
132 182
132 184
132 187
132 198
132 199
132 202
133 134
133 137
133 138
133 140
133 143
133 144
133 148
133 163
133 165
133 166
133 181
133 182
133 184
133 187
133 198
133 199
133 202
134 137
134 138
134 140
134 143
134 144
134 150
134 165
134 170
134 182
134 184
134 187
134 204
134 206
135 136
135 139
135 141
135 142
135 145
135 146
135 147
135 149
135 152
135 162
135 164
135 167
135 168
135 175
135 179
135 183
135 185
135 200
135 201
135 203
135 212
135 213
136 139
136 141
136 142
136 153
136 169
136 171
136 172
136 178
136 180
136 188
136 189
136 207
137 138
137 140
137 143
137 144
137 150
137 165
137 170
137 182
137 184
137 187
137 204
137 206
138 140
138 143
138 144
138 150
138 152
138 165
138 170
138 182
138 184
138 187
138 204
138 206
139 141
139 142
139 153
139 169
139 171
139 172
139 178
139 180
139 188
139 189
139 207
140 143
140 144
140 165
140 167
140 179
140 182
140 183
140 184
140 185
140 187
140 194
140 196
140 200
140 201
141 142
141 212
143 144
143 154
143 159
143 165
143 176
143 182
143 184
143 187
143 207
143 208
143 210
143 212
143 215
144 165
144 182
144 184
144 187
145 146
145 147
145 149
145 152
145 162
145 164
145 167
145 168
145 179
145 183
145 185
145 200
145 201
145 203
146 147
146 149
146 152
146 162
146 164
146 167
146 168
146 179
146 183
146 185
146 200
146 201
146 203
147 149
147 152
147 162
147 164
147 167
147 168
147 179
147 183
147 185
147 200
147 201
147 203
148 150
148 151
148 154
148 156
148 159
148 160
148 163
148 165
148 166
148 170
148 181
148 182
148 186
148 192
148 198
148 199
148 202
148 204
148 205
148 206
148 211
149 152
149 162
149 164
149 167
149 168
149 179
149 183
149 185
149 200
149 201
149 203
150 151
150 154
150 156
150 159
150 160
150 163
150 166
150 170
150 181
150 184
150 186
150 192
150 198
150 199
150 202
150 204
150 205
150 206
150 211
151 154
151 156
151 159
151 160
151 163
151 166
151 170
151 181
151 186
151 192
151 198
151 199
151 202
151 204
151 205
151 206
151 211
152 162
152 164
152 167
152 168
152 179
152 183
152 185
152 200
152 201
152 203
152 206
153 155
153 157
153 158
153 161
153 165
153 169
153 171
153 172
153 173
153 174
153 178
153 180
153 188
153 189
153 190
153 196
153 207
153 209
154 156
154 159
154 160
154 176
154 178
154 180
154 182
154 184
154 187
154 188
154 189
154 191
154 193
154 207
154 208
154 210
154 212
154 215
155 157
155 158
155 161
155 165
155 169
155 171
155 172
155 173
155 174
155 190
155 196
155 209
156 159
156 160
156 163
156 166
156 170
156 181
156 186
156 192
156 198
156 199
156 202
156 204
156 205
156 206
156 211
157 158
157 161
157 165
157 169
157 171
157 172
157 173
157 174
157 182
157 184
157 187
157 190
157 193
157 196
157 209
157 210
158 161
158 196
159 160
159 176
159 207
159 208
159 210
159 212
159 215
161 163
161 166
161 167
161 170
161 176
161 177
161 196
162 164
162 167
162 168
162 175
162 179
162 183
162 185
162 200
162 201
162 203
162 212
162 213
163 165
163 166
163 167
163 170
163 176
163 177
163 181
163 182
163 186
163 192
163 198
163 199
163 202
163 204
163 205
163 206
163 211
164 167
164 168
164 175
164 179
164 183
164 185
164 200
164 201
164 203
164 212
164 213
165 166
165 169
165 171
165 172
165 173
165 174
165 181
165 182
165 184
165 187
165 190
165 193
165 198
165 199
165 202
165 209
165 210
166 167
166 170
166 176
166 177
166 181
166 182
166 186
166 192
166 198
166 199
166 202
166 204
166 205
166 206
166 211
167 168
167 170
167 176
167 177
167 179
167 183
167 185
167 194
167 196
167 200
167 201
167 203
168 175
168 179
168 183
168 185
168 200
168 201
168 203
168 212
168 213
169 171
169 172
169 173
169 174
169 178
169 180
169 188
169 189
169 190
169 207
169 209
170 176
170 177
170 181
170 184
170 186
170 192
170 198
170 199
170 202
170 204
170 205
170 206
170 211
171 172
171 173
171 174
171 178
171 180
171 188
171 189
171 190
171 207
171 209
172 173
172 174
172 178
172 180
172 188
172 189
172 190
172 207
172 209
173 174
173 190
173 209
174 182
174 184
174 187
174 190
174 193
174 209
174 210
175 203
175 212
175 213
176 177
176 207
176 208
176 210
176 212
176 215
178 180
178 182
178 184
178 187
178 188
178 189
178 191
178 193
178 207
178 208
178 210
178 212
179 181
179 183
179 185
179 186
179 190
179 192
179 194
179 195
179 196
179 197
179 200
179 201
179 203
180 182
180 184
180 187
180 188
180 189
180 191
180 193
180 207
180 208
180 210
180 212
181 182
181 183
181 185
181 186
181 190
181 192
181 194
181 195
181 196
181 197
181 198
181 199
181 202
181 204
181 205
181 206
181 211
182 184
182 187
182 188
182 189
182 191
182 193
182 198
182 199
182 202
182 207
182 208
182 210
182 212
183 185
183 186
183 190
183 192
183 194
183 195
183 196
183 197
183 200
183 201
183 203
184 187
184 188
184 189
184 191
184 193
184 204
184 206
184 207
184 208
184 210
184 212
185 186
185 190
185 192
185 194
185 195
185 196
185 197
185 200
185 201
185 203
186 190
186 192
186 194
186 195
186 196
186 197
186 198
186 199
186 202
186 204
186 205
186 206
186 211
187 188
187 189
187 191
187 193
187 207
187 208
187 210
187 212
188 189
188 191
188 193
188 207
188 208
188 210
188 212
189 191
189 193
189 207
189 208
189 210
189 212
190 192
190 194
190 195
190 196
190 197
190 203
190 209
190 213
190 214
191 193
191 207
191 208
191 210
191 212
192 194
192 195
192 196
192 197
192 198
192 199
192 202
192 204
192 205
192 206
192 211
193 207
193 208
193 210
193 212
194 195
194 196
194 197
194 200
194 201
195 196
195 197
195 203
195 209
195 213
195 214
196 197
196 200
196 201
198 199
198 202
198 204
198 205
198 206
198 211
199 202
199 204
199 205
199 206
199 211
200 201
200 203
201 203
202 204
202 205
202 206
202 211
203 209
203 212
203 213
203 214
204 205
204 206
204 211
205 206
205 211
206 211
207 208
207 210
207 212
207 215
208 210
208 212
208 215
209 213
209 214
210 212
210 215
212 213
212 215
213 214
0
1
2
3 4
5
6
7
8
9
10
11 12
13
14
15
16
17
18 19
20 21
22
23
24
25
26 27
28
29
30
31
32
33 34
35 36
37
38
39 40
41 42
43
44
45
46 47
48 49
50
51
52 53
54 55
56 57
58
59
60 61
62
63
64
65
66
67
68 69
70
71
72
73 74
75
76 77
78
79
80 81
82
83 84
85
86
87 88
89
90
91
92 93
94
95
96
97
98
99 100
101
102
103
104
105 106
107
108 109
110
111
112
113 114
115
116
117
118 119
120
121
122 123
124 125
126
127 128
129
130
131
132
133
134 135
136 137
138
139
140
141
142 143
144
145
146
147 148
149
150
151
152 153
154 155
156 157
158
159
160 161
162
163 164
165 166
167 168
169 170
171
172
173
174
175
176
177
178
179 180
181 182
183
184 185
186 187
188
189
190 191
192 193
194
195 196
197
198
199 200
201 202
203 204
205
206
207
208 209
210 211
212 213
214
215
